row=8;
column=8;
Board=[|0,0,0,2,0,0,0,0|0,0,0,3,0,0,0,0|0,0,0,0,0,0,0,0|0,5,0,0,0,0,0,0|0,0,0,0,0,0,0,0|0,0,0,0,0,1,0,0|0,0,0,0,0,0,0,0|0,0,0,0,0,0,0,0|];
right = [2,5,0,4,0,2,0,7];
bottom = [4,3,1,4,0,3,3,2];
